8 8
  0	11	1	59	2	49	3	93	4	9	5	23	6	73	7	57	
  0	83	1	27	2	74	3	47	4	6	5	59	6	8	7	52	
  0	67	1	22	2	5	3	3	4	35	5	97	6	10	7	38	
  0	11	1	41	2	1	3	67	4	11	5	99	6	71	7	58	
  0	63	1	54	2	84	3	7	4	78	5	61	6	61	7	40	
  0	51	1	45	2	62	3	90	4	70	5	92	6	61	7	83	
  0	59	1	29	2	28	3	32	4	91	5	86	6	51	7	64	
  0	41	1	25	2	21	3	32	4	41	5	62	6	42	7	61	
